c colouring generated by benchmark framework
p edge 500 62624
v 1 13
v 2 17
v 3 28
v 4 51
v 5 19
v 6 1
v 7 37
v 8 26
v 9 5
v 10 24
v 11 42
v 12 41
v 13 22
v 14 57
v 15 5
v 16 47
v 17 31
v 18 43
v 19 40
v 20 36
v 21 53
v 22 15
v 23 63
v 24 8
v 25 37
v 26 67
v 27 27
v 28 0
v 29 43
v 30 24
v 31 15
v 32 26
v 33 57
v 34 70
v 35 62
v 36 54
v 37 24
v 38 19
v 39 32
v 40 11
v 41 9
v 42 27
v 43 66
v 44 0
v 45 12
v 46 35
v 47 50
v 48 64
v 49 41
v 50 2
v 51 0
v 52 26
v 53 37
v 54 3
v 55 28
v 56 57
v 57 32
v 58 48
v 59 42
v 60 14
v 61 27
v 62 11
v 63 58
v 64 58
v 65 20
v 66 52
v 67 17
v 68 55
v 69 62
v 70 10
v 71 17
v 72 0
v 73 34
v 74 56
v 75 58
v 76 0
v 77 66
v 78 27
v 79 14
v 80 36
v 81 14
v 82 28
v 83 38
v 84 12
v 85 8
v 86 12
v 87 18
v 88 14
v 89 35
v 90 9
v 91 1
v 92 51
v 93 45
v 94 65
v 95 52
v 96 25
v 97 40
v 98 41
v 99 14
v 100 34
v 101 8
v 102 33
v 103 27
v 104 50
v 105 19
v 106 7
v 107 36
v 108 70
v 109 20
v 110 15
v 111 2
v 112 16
v 113 32
v 114 52
v 115 44
v 116 20
v 117 49
v 118 26
v 119 24
v 120 5
v 121 55
v 122 27
v 123 11
v 124 32
v 125 7
v 126 10
v 127 60
v 128 35
v 129 43
v 130 34
v 131 36
v 132 1
v 133 9
v 134 39
v 135 67
v 136 20
v 137 64
v 138 4
v 139 5
v 140 33
v 141 29
v 142 28
v 143 32
v 144 30
v 145 13
v 146 12
v 147 30
v 148 69
v 149 65
v 150 14
v 151 45
v 152 10
v 153 8
v 154 42
v 155 48
v 156 0
v 157 49
v 158 38
v 159 54
v 160 50
v 161 4
v 162 58
v 163 21
v 164 63
v 165 65
v 166 66
v 167 10
v 168 66
v 169 62
v 170 59
v 171 62
v 172 60
v 173 42
v 174 10
v 175 11
v 176 39
v 177 39
v 178 13
v 179 28
v 180 25
v 181 45
v 182 30
v 183 1
v 184 59
v 185 68
v 186 45
v 187 31
v 188 39
v 189 39
v 190 62
v 191 1
v 192 40
v 193 11
v 194 23
v 195 9
v 196 54
v 197 34
v 198 47
v 199 48
v 200 19
v 201 33
v 202 20
v 203 12
v 204 19
v 205 44
v 206 23
v 207 0
v 208 15
v 209 41
v 210 49
v 211 46
v 212 59
v 213 12
v 214 29
v 215 57
v 216 53
v 217 52
v 218 5
v 219 8
v 220 53
v 221 2
v 222 21
v 223 45
v 224 60
v 225 16
v 226 30
v 227 16
v 228 13
v 229 59
v 230 59
v 231 41
v 232 44
v 233 40
v 234 21
v 235 52
v 236 10
v 237 34
v 238 50
v 239 23
v 240 51
v 241 32
v 242 19
v 243 39
v 244 26
v 245 39
v 246 29
v 247 9
v 248 37
v 249 16
v 250 43
v 251 0
v 252 56
v 253 69
v 254 37
v 255 69
v 256 5
v 257 17
v 258 52
v 259 25
v 260 16
v 261 14
v 262 18
v 263 22
v 264 36
v 265 34
v 266 1
v 267 30
v 268 44
v 269 47
v 270 18
v 271 43
v 272 61
v 273 20
v 274 23
v 275 24
v 276 68
v 277 46
v 278 58
v 279 44
v 280 42
v 281 7
v 282 22
v 283 41
v 284 2
v 285 51
v 286 44
v 287 38
v 288 29
v 289 28
v 290 26
v 291 65
v 292 21
v 293 7
v 294 46
v 295 37
v 296 20
v 297 7
v 298 8
v 299 6
v 300 35
v 301 3
v 302 35
v 303 34
v 304 18
v 305 63
v 306 24
v 307 37
v 308 11
v 309 37
v 310 47
v 311 56
v 312 29
v 313 40
v 314 42
v 315 3
v 316 32
v 317 36
v 318 3
v 319 25
v 320 58
v 321 60
v 322 39
v 323 6
v 324 18
v 325 2
v 326 17
v 327 41
v 328 36
v 329 3
v 330 6
v 331 46
v 332 52
v 333 42
v 334 30
v 335 45
v 336 22
v 337 43
v 338 33
v 339 60
v 340 56
v 341 10
v 342 23
v 343 38
v 344 14
v 345 65
v 346 51
v 347 32
v 348 21
v 349 25
v 350 48
v 351 69
v 352 58
v 353 44
v 354 10
v 355 2
v 356 55
v 357 63
v 358 59
v 359 26
v 360 16
v 361 48
v 362 15
v 363 2
v 364 53
v 365 34
v 366 53
v 367 40
v 368 41
v 369 56
v 370 17
v 371 54
v 372 54
v 373 28
v 374 1
v 375 11
v 376 49
v 377 36
v 378 1
v 379 6
v 380 50
v 381 46
v 382 47
v 383 53
v 384 50
v 385 46
v 386 7
v 387 68
v 388 33
v 389 18
v 390 40
v 391 63
v 392 12
v 393 51
v 394 47
v 395 44
v 396 64
v 397 15
v 398 31
v 399 49
v 400 22
v 401 6
v 402 15
v 403 55
v 404 61
v 405 61
v 406 25
v 407 42
v 408 54
v 409 29
v 410 48
v 411 24
v 412 25
v 413 7
v 414 3
v 415 22
v 416 62
v 417 8
v 418 13
v 419 26
v 420 31
v 421 9
v 422 33
v 423 21
v 424 24
v 425 29
v 426 48
v 427 35
v 428 22
v 429 0
v 430 3
v 431 19
v 432 47
v 433 18
v 434 23
v 435 4
v 436 18
v 437 4
v 438 8
v 439 55
v 440 33
v 441 56
v 442 13
v 443 64
v 444 55
v 445 4
v 446 38
v 447 46
v 448 15
v 449 38
v 450 45
v 451 64
v 452 63
v 453 31
v 454 19
v 455 23
v 456 5
v 457 57
v 458 42
v 459 27
v 460 46
v 461 60
v 462 17
v 463 48
v 464 67
v 465 57
v 466 16
v 467 7
v 468 4
v 469 13
v 470 36
v 471 31
v 472 11
v 473 55
v 474 20
v 475 31
v 476 9
v 477 12
v 478 32
v 479 45
v 480 6
v 481 6
v 482 63
v 483 4
v 484 38
v 485 23
v 486 29
v 487 33
v 488 25
v 489 6
v 490 70
v 491 67
v 492 30
v 493 9
v 494 62
v 495 16
v 496 21
v 497 64
v 498 61
v 499 69
v 500 52
